p tw 63 97
1 2
1 8
8 9
8 15
15 16
15 22
29 30
29 36
36 37
36 43
43 44
43 50
50 51
57 58
2 3
2 9
9 10
9 16
16 17
16 23
23 24
23 30
30 31
30 37
37 38
37 44
44 45
44 51
51 52
51 58
58 59
3 4
3 10
10 11
10 17
17 18
24 25
24 31
31 32
31 38
38 39
38 45
45 46
45 52
52 53
52 59
4 5
4 11
11 12
11 18
18 25
25 26
32 33
32 39
39 40
39 46
46 47
46 53
53 54
53 60
60 61
5 6
5 12
12 13
12 19
19 20
19 26
26 27
26 33
33 34
33 40
40 41
40 47
54 55
61 62
6 7
6 13
13 14
20 21
20 27
27 28
27 34
34 35
34 41
41 48
48 55
55 56
55 62
62 63
7 14
14 21
21 28
28 35
35 42
42 49
49 56
56 63
